1111100 AB
334 357 381 404 428 456 482 509 514 536 560 585 609 633 657 682 706 731 755 780 804 828 854 877 903 929 957 983 1011 1036 1065 1089 1104 1121 1158 1209 1253 1301 1347 1396
1111100 BA
360 383 407 432 458 486 512 539 564 588 612 637 661 685 710 734 759 783 807 832 856 882 905 933 959 987 1012 1041 1066 1080 1095 1119 1134 1186 1222 1237 1280 1327 1373 1422
0000011 AB
334 381 428 452 477 501 525 530 550 574 599 623 648 672 697 721 746 771 795 820 844 868 893 917 942 966 991 1015 1040 1065 1091 1107 1123 1140 1156 1172 1189 1205 1259 1304 1351 1398
0000011 BA
360 407 456 480 505 529 553 578 602 627 651 676 700 725 750 774 799 823 847 872 896 921 945 970 994 1019 1043 1068 1077 1093 1119 1135 1151 1168 1184 1200 1233 1281 1285 1330 1377 1424
